c Standarized MaxSat Instance
c{
c "sha1sum": "ac08e389f10e43541007e4f63b507267492dcb1b",
c "nvars": 163,
c "ncls": 842,
c "nhards": 772,
c "nhard_len_stats":
c    { "min": 2, "max": 4, "ave": 2.07,
c      "stddev": 0.32 },
c "nsofts": 70,
c "nsoft_len_stats":
c    { "min": 1, "max": 1, "ave": 1.00,
c      "stddev": 0.00 },
c "nsoft_wts": 5,
c "soft_wt_stats":
c    { "min": 5, "max": 180, "ave": 80.71,
c      "stddev": 73.16 }
c}
c------------------------------------------------------------
c ./driverlog01c.wcsp
c PSEUDOBOOLEAN 5891
c LOWER BOUND 120
p wcnf 163 842 5651
5651 2 3 4 0
5651 -2 -3 0
5651 -2 -4 0
5651 -3 -2 0
5651 -3 -4 0
5651 -4 -2 0
5651 -4 -3 0
5651 5 6 7 0
5651 -5 -6 0
5651 -5 -7 0
5651 -6 -5 0
5651 -6 -7 0
5651 -7 -5 0
5651 -7 -6 0
5651 8 9 10 0
5651 -8 -9 0
5651 -8 -10 0
5651 -9 -8 0
5651 -9 -10 0
5651 -10 -8 0
5651 -10 -9 0
5651 13 14 15 16 0
5651 -13 -14 0
5651 -13 -15 0
5651 -13 -16 0
5651 -14 -13 0
5651 -14 -15 0
5651 -14 -16 0
5651 -15 -13 0
5651 -15 -14 0
5651 -15 -16 0
5651 -16 -13 0
5651 -16 -14 0
5651 -16 -15 0
5651 17 18 19 20 0
5651 -17 -18 0
5651 -17 -19 0
5651 -17 -20 0
5651 -18 -17 0
5651 -18 -19 0
5651 -18 -20 0
5651 -19 -17 0
5651 -19 -18 0
5651 -19 -20 0
5651 -20 -17 0
5651 -20 -18 0
5651 -20 -19 0
5651 21 22 23 24 0
5651 -21 -22 0
5651 -21 -23 0
5651 -21 -24 0
5651 -22 -21 0
5651 -22 -23 0
5651 -22 -24 0
5651 -23 -21 0
5651 -23 -22 0
5651 -23 -24 0
5651 -24 -21 0
5651 -24 -22 0
5651 -24 -23 0
5651 25 26 27 0
5651 -25 -26 0
5651 -25 -27 0
5651 -26 -25 0
5651 -26 -27 0
5651 -27 -25 0
5651 -27 -26 0
5651 28 29 30 0
5651 -28 -29 0
5651 -28 -30 0
5651 -29 -28 0
5651 -29 -30 0
5651 -30 -28 0
5651 -30 -29 0
5651 31 32 33 0
5651 -31 -32 0
5651 -31 -33 0
5651 -32 -31 0
5651 -32 -33 0
5651 -33 -31 0
5651 -33 -32 0
5651 34 35 36 0
5651 -34 -35 0
5651 -34 -36 0
5651 -35 -34 0
5651 -35 -36 0
5651 -36 -34 0
5651 -36 -35 0
5651 37 38 39 40 0
5651 -37 -38 0
5651 -37 -39 0
5651 -37 -40 0
5651 -38 -37 0
5651 -38 -39 0
5651 -38 -40 0
5651 -39 -37 0
5651 -39 -38 0
5651 -39 -40 0
5651 -40 -37 0
5651 -40 -38 0
5651 -40 -39 0
5651 41 42 43 44 0
5651 -41 -42 0
5651 -41 -43 0
5651 -41 -44 0
5651 -42 -41 0
5651 -42 -43 0
5651 -42 -44 0
5651 -43 -41 0
5651 -43 -42 0
5651 -43 -44 0
5651 -44 -41 0
5651 -44 -42 0
5651 -44 -43 0
5651 49 50 51 0
5651 -49 -50 0
5651 -49 -51 0
5651 -50 -49 0
5651 -50 -51 0
5651 -51 -49 0
5651 -51 -50 0
5651 52 53 54 55 0
5651 -52 -53 0
5651 -52 -54 0
5651 -52 -55 0
5651 -53 -52 0
5651 -53 -54 0
5651 -53 -55 0
5651 -54 -52 0
5651 -54 -53 0
5651 -54 -55 0
5651 -55 -52 0
5651 -55 -53 0
5651 -55 -54 0
5651 56 57 58 59 0
5651 -56 -57 0
5651 -56 -58 0
5651 -56 -59 0
5651 -57 -56 0
5651 -57 -58 0
5651 -57 -59 0
5651 -58 -56 0
5651 -58 -57 0
5651 -58 -59 0
5651 -59 -56 0
5651 -59 -57 0
5651 -59 -58 0
5651 60 61 62 0
5651 -60 -61 0
5651 -60 -62 0
5651 -61 -60 0
5651 -61 -62 0
5651 -62 -60 0
5651 -62 -61 0
5651 63 64 65 0
5651 -63 -64 0
5651 -63 -65 0
5651 -64 -63 0
5651 -64 -65 0
5651 -65 -63 0
5651 -65 -64 0
5651 66 67 68 0
5651 -66 -67 0
5651 -66 -68 0
5651 -67 -66 0
5651 -67 -68 0
5651 -68 -66 0
5651 -68 -67 0
5651 69 70 71 0
5651 -69 -70 0
5651 -69 -71 0
5651 -70 -69 0
5651 -70 -71 0
5651 -71 -69 0
5651 -71 -70 0
5651 72 73 74 75 0
5651 -72 -73 0
5651 -72 -74 0
5651 -72 -75 0
5651 -73 -72 0
5651 -73 -74 0
5651 -73 -75 0
5651 -74 -72 0
5651 -74 -73 0
5651 -74 -75 0
5651 -75 -72 0
5651 -75 -73 0
5651 -75 -74 0
5651 76 77 78 79 0
5651 -76 -77 0
5651 -76 -78 0
5651 -76 -79 0
5651 -77 -76 0
5651 -77 -78 0
5651 -77 -79 0
5651 -78 -76 0
5651 -78 -77 0
5651 -78 -79 0
5651 -79 -76 0
5651 -79 -77 0
5651 -79 -78 0
5651 83 84 85 0
5651 -83 -84 0
5651 -83 -85 0
5651 -84 -83 0
5651 -84 -85 0
5651 -85 -83 0
5651 -85 -84 0
5651 88 89 90 0
5651 -88 -89 0
5651 -88 -90 0
5651 -89 -88 0
5651 -89 -90 0
5651 -90 -88 0
5651 -90 -89 0
5651 91 92 93 94 0
5651 -91 -92 0
5651 -91 -93 0
5651 -91 -94 0
5651 -92 -91 0
5651 -92 -93 0
5651 -92 -94 0
5651 -93 -91 0
5651 -93 -92 0
5651 -93 -94 0
5651 -94 -91 0
5651 -94 -92 0
5651 -94 -93 0
5651 95 96 97 0
5651 -95 -96 0
5651 -95 -97 0
5651 -96 -95 0
5651 -96 -97 0
5651 -97 -95 0
5651 -97 -96 0
5651 98 99 100 0
5651 -98 -99 0
5651 -98 -100 0
5651 -99 -98 0
5651 -99 -100 0
5651 -100 -98 0
5651 -100 -99 0
5651 101 102 103 0
5651 -101 -102 0
5651 -101 -103 0
5651 -102 -101 0
5651 -102 -103 0
5651 -103 -101 0
5651 -103 -102 0
5651 104 105 106 0
5651 -104 -105 0
5651 -104 -106 0
5651 -105 -104 0
5651 -105 -106 0
5651 -106 -104 0
5651 -106 -105 0
5651 107 108 109 110 0
5651 -107 -108 0
5651 -107 -109 0
5651 -107 -110 0
5651 -108 -107 0
5651 -108 -109 0
5651 -108 -110 0
5651 -109 -107 0
5651 -109 -108 0
5651 -109 -110 0
5651 -110 -107 0
5651 -110 -108 0
5651 -110 -109 0
5651 111 112 113 114 0
5651 -111 -112 0
5651 -111 -113 0
5651 -111 -114 0
5651 -112 -111 0
5651 -112 -113 0
5651 -112 -114 0
5651 -113 -111 0
5651 -113 -112 0
5651 -113 -114 0
5651 -114 -111 0
5651 -114 -112 0
5651 -114 -113 0
5651 118 119 120 0
5651 -118 -119 0
5651 -118 -120 0
5651 -119 -118 0
5651 -119 -120 0
5651 -120 -118 0
5651 -120 -119 0
5651 123 124 125 0
5651 -123 -124 0
5651 -123 -125 0
5651 -124 -123 0
5651 -124 -125 0
5651 -125 -123 0
5651 -125 -124 0
5651 126 127 128 0
5651 -126 -127 0
5651 -126 -128 0
5651 -127 -126 0
5651 -127 -128 0
5651 -128 -126 0
5651 -128 -127 0
5651 129 130 131 0
5651 -129 -130 0
5651 -129 -131 0
5651 -130 -129 0
5651 -130 -131 0
5651 -131 -129 0
5651 -131 -130 0
5651 132 133 134 0
5651 -132 -133 0
5651 -132 -134 0
5651 -133 -132 0
5651 -133 -134 0
5651 -134 -132 0
5651 -134 -133 0
5651 135 136 137 0
5651 -135 -136 0
5651 -135 -137 0
5651 -136 -135 0
5651 -136 -137 0
5651 -137 -135 0
5651 -137 -136 0
5651 138 139 140 141 0
5651 -138 -139 0
5651 -138 -140 0
5651 -138 -141 0
5651 -139 -138 0
5651 -139 -140 0
5651 -139 -141 0
5651 -140 -138 0
5651 -140 -139 0
5651 -140 -141 0
5651 -141 -138 0
5651 -141 -139 0
5651 -141 -140 0
5651 142 143 144 145 0
5651 -142 -143 0
5651 -142 -144 0
5651 -142 -145 0
5651 -143 -142 0
5651 -143 -144 0
5651 -143 -145 0
5651 -144 -142 0
5651 -144 -143 0
5651 -144 -145 0
5651 -145 -142 0
5651 -145 -143 0
5651 -145 -144 0
5651 149 150 151 0
5651 -149 -150 0
5651 -149 -151 0
5651 -150 -149 0
5651 -150 -151 0
5651 -151 -149 0
5651 -151 -150 0
5651 -1 -2 0
5651 -1 -3 0
5651 -1 -4 0
5651 1 -7 0
5651 -1 -7 0
5651 1 -10 0
5651 -1 -10 0
5651 -1 11 0
5651 1 12 0
5651 1 46 0
5651 -1 46 0
5651 -4 -13 0
5651 -2 -17 0
5651 -3 -21 0
5651 -7 -28 0
5651 -6 -34 0
5651 -5 -37 0
5651 -6 45 0
5651 -7 46 0
5651 -10 -25 0
5651 -9 -31 0
5651 -8 -41 0
5651 -9 45 0
5651 -10 46 0
5651 -11 -12 0
5651 -11 -14 0
5651 -11 -15 0
5651 -11 -16 0
5651 -11 -18 0
5651 -11 -19 0
5651 -11 -20 0
5651 -11 -22 0
5651 -11 -23 0
5651 -11 -24 0
5651 -11 48 0
5651 -11 81 0
5651 -11 82 0
5651 -12 47 0
5651 -12 81 0
5651 -12 82 0
5651 -14 -18 0
5651 -14 -19 0
5651 -14 -20 0
5651 -15 -18 0
5651 -15 -19 0
5651 -15 -20 0
5651 -16 -18 0
5651 -16 -19 0
5651 -16 -20 0
5651 -14 -22 0
5651 -14 -23 0
5651 -14 -24 0
5651 -15 -22 0
5651 -15 -23 0
5651 -15 -24 0
5651 -16 -22 0
5651 -16 -23 0
5651 -16 -24 0
5651 -16 48 0
5651 -14 -49 0
5651 -15 -52 0
5651 -18 -22 0
5651 -18 -23 0
5651 -18 -24 0
5651 -19 -22 0
5651 -19 -23 0
5651 -19 -24 0
5651 -20 -22 0
5651 -20 -23 0
5651 -20 -24 0
5651 -20 -49 0
5651 -18 -52 0
5651 -19 -56 0
5651 -24 -52 0
5651 -22 -56 0
5651 -23 -83 0
5651 -26 -32 0
5651 -26 -33 0
5651 -27 -32 0
5651 -27 -33 0
5651 -26 -42 0
5651 -26 -43 0
5651 -26 -44 0
5651 -27 -42 0
5651 -27 -43 0
5651 -27 -44 0
5651 -26 -60 0
5651 -27 -76 0
5651 -27 82 0
5651 -29 -35 0
5651 -29 -36 0
5651 -30 -35 0
5651 -30 -36 0
5651 -29 -38 0
5651 -29 -39 0
5651 -29 -40 0
5651 -30 -38 0
5651 -30 -39 0
5651 -30 -40 0
5651 -29 -63 0
5651 -30 -72 0
5651 -30 82 0
5651 -32 -42 0
5651 -32 -43 0
5651 -32 -44 0
5651 -33 -42 0
5651 -33 -43 0
5651 -33 -44 0
5651 -32 -66 0
5651 -33 -76 0
5651 -33 80 0
5651 -35 -38 0
5651 -35 -39 0
5651 -35 -40 0
5651 -36 -38 0
5651 -36 -39 0
5651 -36 -40 0
5651 -35 -69 0
5651 -36 -72 0
5651 -36 80 0
5651 -40 -63 0
5651 -39 -69 0
5651 -38 -72 0
5651 -39 80 0
5651 -40 82 0
5651 -44 -60 0
5651 -43 -66 0
5651 -42 -76 0
5651 -43 80 0
5651 -44 82 0
5651 -45 80 0
5651 -46 82 0
5651 -47 87 0
5651 -48 -50 0
5651 -48 -51 0
5651 -48 -53 0
5651 -48 -54 0
5651 -48 -55 0
5651 -48 -57 0
5651 -48 -58 0
5651 -48 -59 0
5651 -48 -84 0
5651 -48 -85 0
5651 -48 86 0
5651 -50 -53 0
5651 -50 -54 0
5651 -50 -55 0
5651 -51 -53 0
5651 -51 -54 0
5651 -51 -55 0
5651 -50 -57 0
5651 -50 -58 0
5651 -50 -59 0
5651 -51 -57 0
5651 -51 -58 0
5651 -51 -59 0
5651 -50 -84 0
5651 -50 -85 0
5651 -51 -84 0
5651 -51 -85 0
5651 -50 86 0
5651 -51 -88 0
5651 -53 -57 0
5651 -53 -58 0
5651 -53 -59 0
5651 -54 -57 0
5651 -54 -58 0
5651 -54 -59 0
5651 -55 -57 0
5651 -55 -58 0
5651 -55 -59 0
5651 -53 -84 0
5651 -53 -85 0
5651 -54 -84 0
5651 -54 -85 0
5651 -55 -84 0
5651 -55 -85 0
5651 -55 86 0
5651 -53 -88 0
5651 -54 -91 0
5651 -57 -84 0
5651 -57 -85 0
5651 -58 -84 0
5651 -58 -85 0
5651 -59 -84 0
5651 -59 -85 0
5651 -59 -88 0
5651 -57 -91 0
5651 -58 -118 0
5651 -61 -67 0
5651 -61 -68 0
5651 -62 -67 0
5651 -62 -68 0
5651 -61 -77 0
5651 -61 -78 0
5651 -61 -79 0
5651 -62 -77 0
5651 -62 -78 0
5651 -62 -79 0
5651 -61 -95 0
5651 -62 -111 0
5651 -62 117 0
5651 -64 -70 0
5651 -64 -71 0
5651 -65 -70 0
5651 -65 -71 0
5651 -64 -73 0
5651 -64 -74 0
5651 -64 -75 0
5651 -65 -73 0
5651 -65 -74 0
5651 -65 -75 0
5651 -64 -98 0
5651 -65 -107 0
5651 -65 117 0
5651 -67 -77 0
5651 -67 -78 0
5651 -67 -79 0
5651 -68 -77 0
5651 -68 -78 0
5651 -68 -79 0
5651 -67 -101 0
5651 -68 -111 0
5651 -68 115 0
5651 -70 -73 0
5651 -70 -74 0
5651 -70 -75 0
5651 -71 -73 0
5651 -71 -74 0
5651 -71 -75 0
5651 -70 -104 0
5651 -71 -107 0
5651 -71 115 0
5651 -75 -98 0
5651 -74 -104 0
5651 -73 -107 0
5651 -74 115 0
5651 -75 117 0
5651 -79 -95 0
5651 -78 -101 0
5651 -77 -111 0
5651 -78 115 0
5651 -79 117 0
5651 -80 115 0
5651 -81 116 0
5651 -82 117 0
5651 -85 -91 0
5651 -84 -118 0
5651 -86 -89 0
5651 -86 -90 0
5651 -86 -92 0
5651 -86 -93 0
5651 -86 -94 0
5651 -86 -119 0
5651 -86 -120 0
5651 -86 122 0
5651 -87 121 0
5651 -89 -92 0
5651 -89 -93 0
5651 -89 -94 0
5651 -90 -92 0
5651 -90 -93 0
5651 -90 -94 0
5651 -89 -119 0
5651 -89 -120 0
5651 -90 -119 0
5651 -90 -120 0
5651 -89 122 0
5651 -90 -123 0
5651 -92 -119 0
5651 -92 -120 0
5651 -93 -119 0
5651 -93 -120 0
5651 -94 -119 0
5651 -94 -120 0
5651 -94 122 0
5651 -92 -123 0
5651 -93 -149 0
5651 -96 -102 0
5651 -96 -103 0
5651 -97 -102 0
5651 -97 -103 0
5651 -96 -112 0
5651 -96 -113 0
5651 -96 -114 0
5651 -97 -112 0
5651 -97 -113 0
5651 -97 -114 0
5651 -96 -126 0
5651 -97 -142 0
5651 -97 148 0
5651 -99 -105 0
5651 -99 -106 0
5651 -100 -105 0
5651 -100 -106 0
5651 -99 -108 0
5651 -99 -109 0
5651 -99 -110 0
5651 -100 -108 0
5651 -100 -109 0
5651 -100 -110 0
5651 -99 -129 0
5651 -100 -138 0
5651 -100 148 0
5651 -102 -112 0
5651 -102 -113 0
5651 -102 -114 0
5651 -103 -112 0
5651 -103 -113 0
5651 -103 -114 0
5651 -102 -132 0
5651 -103 -142 0
5651 -103 146 0
5651 -105 -108 0
5651 -105 -109 0
5651 -105 -110 0
5651 -106 -108 0
5651 -106 -109 0
5651 -106 -110 0
5651 -105 -135 0
5651 -106 -138 0
5651 -106 146 0
5651 -110 -129 0
5651 -109 -135 0
5651 -108 -138 0
5651 -109 146 0
5651 -110 148 0
5651 -114 -126 0
5651 -113 -132 0
5651 -112 -142 0
5651 -113 146 0
5651 -114 148 0
5651 -115 146 0
5651 -116 147 0
5651 -117 148 0
5651 -120 -123 0
5651 -119 -149 0
5651 -121 153 0
5651 -122 -124 0
5651 -122 -125 0
5651 -122 -150 0
5651 -122 -151 0
5651 -122 152 0
5651 -124 -150 0
5651 -124 -151 0
5651 -125 -150 0
5651 -125 -151 0
5651 -124 152 0
5651 -125 163 0
5651 -127 -133 0
5651 -127 -134 0
5651 -128 -133 0
5651 -128 -134 0
5651 -127 -143 0
5651 -127 -144 0
5651 -127 -145 0
5651 -128 -143 0
5651 -128 -144 0
5651 -128 -145 0
5651 -127 154 0
5651 -128 159 0
5651 -128 162 0
5651 -130 -136 0
5651 -130 -137 0
5651 -131 -136 0
5651 -131 -137 0
5651 -130 -139 0
5651 -130 -140 0
5651 -130 -141 0
5651 -131 -139 0
5651 -131 -140 0
5651 -131 -141 0
5651 -130 155 0
5651 -131 158 0
5651 -131 162 0
5651 -133 -143 0
5651 -133 -144 0
5651 -133 -145 0
5651 -134 -143 0
5651 -134 -144 0
5651 -134 -145 0
5651 -133 156 0
5651 -134 159 0
5651 -134 160 0
5651 -136 -139 0
5651 -136 -140 0
5651 -136 -141 0
5651 -137 -139 0
5651 -137 -140 0
5651 -137 -141 0
5651 -136 157 0
5651 -137 158 0
5651 -137 160 0
5651 -141 155 0
5651 -140 157 0
5651 -139 158 0
5651 -140 160 0
5651 -141 162 0
5651 -145 154 0
5651 -144 156 0
5651 -143 159 0
5651 -144 160 0
5651 -145 162 0
5651 -146 160 0
5651 -147 161 0
5651 -148 162 0
5651 -151 152 0
5651 -150 163 0
5651 -152 -163 0
5651 -154 -156 0
5651 -154 -159 0
5651 -155 -157 0
5651 -155 -158 0
5651 -156 -159 0
5651 -157 -158 0
180 -3 0
150 -4 0
15 -6 0
15 -7 0
30 -9 0
30 -10 0
5 -11 0
5 -12 0
150 -15 0
150 -16 0
180 -19 0
150 -20 0
180 -23 0
180 -24 0
30 -27 0
15 -30 0
30 -33 0
15 -36 0
15 -39 0
15 -40 0
30 -43 0
30 -44 0
150 -47 0
150 -48 0
150 -51 0
180 -54 0
150 -55 0
180 -58 0
180 -59 0
30 -62 0
15 -65 0
30 -68 0
15 -71 0
15 -74 0
15 -75 0
30 -78 0
30 -79 0
180 -85 0
150 -86 0
150 -87 0
180 -90 0
180 -93 0
180 -94 0
30 -97 0
15 -100 0
30 -103 0
15 -106 0
15 -109 0
15 -110 0
30 -113 0
30 -114 0
180 -120 0
180 -121 0
180 -122 0
180 -125 0
30 -128 0
15 -131 0
30 -134 0
15 -137 0
15 -140 0
15 -141 0
30 -144 0
30 -145 0
180 -151 0
180 -152 0
180 -153 0
30 -154 0
15 -155 0
30 -156 0
15 -157 0
